language ESSENCE' 1.0
letting values be [[0, 8, 4, 7, 0, 0, 0, 3, 9], [0, 0, 0, 8, 0, 9, 2, 0, 6], [1, 0, 9, 4, 0, 3, 8, 7, 5], [7, 0, 0, 2, 3, 4, 5, 0, 0], [0, 2, 0, 1, 0, 8, 0, 0, 0], [5, 0, 0, 6, 0, 7, 3, 1, 2], [0, 0, 0, 0, 4, 2, 9, 0, 7], [4, 7, 2, 9, 0, 1, 6, 5, 3], [8, 0, 0, 0, 0, 0, 4, 2, 0]]